# Objective value = 322
s_1_1 2880
e_1_1 3722
alpha_1_1 0
l_1_1 1
delta_1_1 0
beta_1_1_1 1
x_1_1_1_2_1 0
x_1_1_1_3_1 0
x_1_1_1_4_1 0
x_1_1_1_5_1 0
x_1_1_1_6_1 0
x_1_1_1_7_1 0
x_1_1_1_8_1 0
x_1_1_1_9_1 1
x_1_1_1_10_1 0
beta_2_1_1 0
x_2_1_1_2_1 0
x_2_1_1_3_1 0
x_2_1_1_4_1 0
x_2_1_1_5_1 0
x_2_1_1_6_1 0
x_2_1_1_7_1 0
x_2_1_1_8_1 0
x_2_1_1_9_1 0
x_2_1_1_10_1 0
y_1_1_1 1
z_1_1_1 1
lambda_1_1_1 0
y_2_1_1 1
z_2_1_1 1
lambda_2_1_1 0
y_3_1_1 1
z_3_1_1 1
lambda_3_1_1 0
y_4_1_1 1
z_4_1_1 1
lambda_4_1_1 0
y_5_1_1 1
z_5_1_1 0
lambda_5_1_1 0
y_6_1_1 1
z_6_1_1 1
lambda_6_1_1 0
y_7_1_1 0
z_7_1_1 0
lambda_7_1_1 0
y_8_1_1 1
z_8_1_1 0
lambda_8_1_1 0
y_9_1_1 0
z_9_1_1 0
lambda_9_1_1 0
y_10_1_1 0
z_10_1_1 0
lambda_10_1_1 0
y_11_1_1 0
z_11_1_1 0
lambda_11_1_1 0
y_12_1_1 0
z_12_1_1 0
lambda_12_1_1 0
y_13_1_1 0
z_13_1_1 0
lambda_13_1_1 0
y_14_1_1 0
z_14_1_1 0
lambda_14_1_1 0
y_15_1_1 0
z_15_1_1 0
lambda_15_1_1 0
y_16_1_1 0
z_16_1_1 0
lambda_16_1_1 0
y_17_1_1 0
z_17_1_1 0
lambda_17_1_1 0
y_18_1_1 0
z_18_1_1 0
lambda_18_1_1 0
y_19_1_1 0
z_19_1_1 0
lambda_19_1_1 0
y_20_1_1 1
z_20_1_1 0
lambda_20_1_1 0
y_21_1_1 0
z_21_1_1 0
lambda_21_1_1 0
s_2_1 3
e_2_1 523
alpha_2_1 1
l_2_1 0
delta_2_1 0
beta_1_2_1 0
x_1_2_1_1_1 0
x_1_2_1_3_1 0
x_1_2_1_4_1 0
x_1_2_1_5_1 0
x_1_2_1_6_1 0
x_1_2_1_7_1 0
x_1_2_1_8_1 0
x_1_2_1_9_1 0
x_1_2_1_10_1 0
beta_2_2_1 1
x_2_2_1_1_1 0
x_2_2_1_3_1 0
x_2_2_1_4_1 0
x_2_2_1_5_1 0
x_2_2_1_6_1 0
x_2_2_1_7_1 0
x_2_2_1_8_1 0
x_2_2_1_9_1 0
x_2_2_1_10_1 0
y_1_2_1 0
z_1_2_1 0
lambda_1_2_1 0
y_2_2_1 0
z_2_2_1 0
lambda_2_2_1 0
y_3_2_1 0
z_3_2_1 0
lambda_3_2_1 0
y_4_2_1 0
z_4_2_1 0
lambda_4_2_1 0
y_5_2_1 0
z_5_2_1 0
lambda_5_2_1 0
y_6_2_1 0
z_6_2_1 0
lambda_6_2_1 0
y_7_2_1 1
z_7_2_1 0
lambda_7_2_1 0
y_8_2_1 1
z_8_2_1 0
lambda_8_2_1 0
y_9_2_1 0
z_9_2_1 0
lambda_9_2_1 0
y_10_2_1 1
z_10_2_1 0
lambda_10_2_1 0
y_11_2_1 1
z_11_2_1 0
lambda_11_2_1 0
y_12_2_1 1
z_12_2_1 0
lambda_12_2_1 0
y_13_2_1 0
z_13_2_1 0
lambda_13_2_1 0
y_14_2_1 1
z_14_2_1 0
lambda_14_2_1 0
y_15_2_1 1
z_15_2_1 0
lambda_15_2_1 0
y_16_2_1 1
z_16_2_1 0
lambda_16_2_1 0
y_17_2_1 0
z_17_2_1 0
lambda_17_2_1 0
y_18_2_1 0
z_18_2_1 0
lambda_18_2_1 0
y_19_2_1 0
z_19_2_1 0
lambda_19_2_1 0
y_20_2_1 0
z_20_2_1 0
lambda_20_2_1 0
y_21_2_1 0
z_21_2_1 0
lambda_21_2_1 0
s_3_1 3
e_3_1 307
alpha_3_1 1
l_3_1 0
delta_3_1 0
beta_1_3_1 1
x_1_3_1_1_1 0
x_1_3_1_2_1 0
x_1_3_1_4_1 0
x_1_3_1_5_1 0
x_1_3_1_6_1 0
x_1_3_1_7_1 0
x_1_3_1_8_1 0
x_1_3_1_9_1 0
x_1_3_1_10_1 0
beta_2_3_1 0
x_2_3_1_1_1 0
x_2_3_1_2_1 0
x_2_3_1_4_1 0
x_2_3_1_5_1 0
x_2_3_1_6_1 0
x_2_3_1_7_1 0
x_2_3_1_8_1 0
x_2_3_1_9_1 0
x_2_3_1_10_1 0
y_1_3_1 1
z_1_3_1 0
lambda_1_3_1 0
y_2_3_1 1
z_2_3_1 0
lambda_2_3_1 0
y_3_3_1 1
z_3_3_1 0
lambda_3_3_1 0
y_4_3_1 1
z_4_3_1 0
lambda_4_3_1 0
y_5_3_1 0
z_5_3_1 0
lambda_5_3_1 0
y_6_3_1 0
z_6_3_1 0
lambda_6_3_1 0
y_7_3_1 1
z_7_3_1 0
lambda_7_3_1 0
y_8_3_1 0
z_8_3_1 0
lambda_8_3_1 0
y_9_3_1 0
z_9_3_1 0
lambda_9_3_1 0
y_10_3_1 0
z_10_3_1 0
lambda_10_3_1 0
y_11_3_1 0
z_11_3_1 0
lambda_11_3_1 0
y_12_3_1 0
z_12_3_1 0
lambda_12_3_1 0
y_13_3_1 1
z_13_3_1 0
lambda_13_3_1 0
y_14_3_1 1
z_14_3_1 0
lambda_14_3_1 0
y_15_3_1 0
z_15_3_1 0
lambda_15_3_1 0
y_16_3_1 0
z_16_3_1 0
lambda_16_3_1 0
y_17_3_1 1
z_17_3_1 0
lambda_17_3_1 0
y_18_3_1 0
z_18_3_1 0
lambda_18_3_1 0
y_19_3_1 0
z_19_3_1 0
lambda_19_3_1 0
y_20_3_1 0
z_20_3_1 0
lambda_20_3_1 0
y_21_3_1 0
z_21_3_1 0
lambda_21_3_1 0
s_4_1 871
e_4_1 1582
alpha_4_1 1
l_4_1 0
delta_4_1 0
beta_1_4_1 1
x_1_4_1_1_1 0
x_1_4_1_2_1 0
x_1_4_1_3_1 0
x_1_4_1_5_1 0
x_1_4_1_6_1 0
x_1_4_1_7_1 1
x_1_4_1_8_1 0
x_1_4_1_9_1 0
x_1_4_1_10_1 0
beta_2_4_1 0
x_2_4_1_1_1 0
x_2_4_1_2_1 0
x_2_4_1_3_1 0
x_2_4_1_5_1 0
x_2_4_1_6_1 0
x_2_4_1_7_1 0
x_2_4_1_8_1 0
x_2_4_1_9_1 0
x_2_4_1_10_1 0
y_1_4_1 1
z_1_4_1 0
lambda_1_4_1 0
y_2_4_1 1
z_2_4_1 0
lambda_2_4_1 0
y_3_4_1 1
z_3_4_1 0
lambda_3_4_1 0
y_4_4_1 1
z_4_4_1 0
lambda_4_4_1 0
y_5_4_1 1
z_5_4_1 0
lambda_5_4_1 0
y_6_4_1 1
z_6_4_1 0
lambda_6_4_1 0
y_7_4_1 1
z_7_4_1 0
lambda_7_4_1 0
y_8_4_1 0
z_8_4_1 0
lambda_8_4_1 0
y_9_4_1 0
z_9_4_1 0
lambda_9_4_1 0
y_10_4_1 0
z_10_4_1 0
lambda_10_4_1 0
y_11_4_1 0
z_11_4_1 0
lambda_11_4_1 0
y_12_4_1 0
z_12_4_1 0
lambda_12_4_1 0
y_13_4_1 0
z_13_4_1 0
lambda_13_4_1 0
y_14_4_1 0
z_14_4_1 0
lambda_14_4_1 0
y_15_4_1 0
z_15_4_1 0
lambda_15_4_1 0
y_16_4_1 0
z_16_4_1 0
lambda_16_4_1 0
y_17_4_1 0
z_17_4_1 0
lambda_17_4_1 0
y_18_4_1 0
z_18_4_1 0
lambda_18_4_1 0
y_19_4_1 0
z_19_4_1 0
lambda_19_4_1 0
y_20_4_1 0
z_20_4_1 0
lambda_20_4_1 0
y_21_4_1 0
z_21_4_1 0
lambda_21_4_1 0
s_5_1 1928
e_5_1 2880
alpha_5_1 1
l_5_1 0
delta_5_1 0
beta_1_5_1 0
x_1_5_1_1_1 0
x_1_5_1_2_1 0
x_1_5_1_3_1 0
x_1_5_1_4_1 0
x_1_5_1_6_1 0
x_1_5_1_7_1 0
x_1_5_1_8_1 0
x_1_5_1_9_1 0
x_1_5_1_10_1 0
beta_2_5_1 1
x_2_5_1_1_1 0
x_2_5_1_2_1 0
x_2_5_1_3_1 0
x_2_5_1_4_1 0
x_2_5_1_6_1 1
x_2_5_1_7_1 0
x_2_5_1_8_1 0
x_2_5_1_9_1 0
x_2_5_1_10_1 0
y_1_5_1 0
z_1_5_1 0
lambda_1_5_1 0
y_2_5_1 0
z_2_5_1 0
lambda_2_5_1 0
y_3_5_1 0
z_3_5_1 0
lambda_3_5_1 0
y_4_5_1 0
z_4_5_1 0
lambda_4_5_1 0
y_5_5_1 0
z_5_5_1 0
lambda_5_5_1 0
y_6_5_1 0
z_6_5_1 0
lambda_6_5_1 0
y_7_5_1 1
z_7_5_1 0
lambda_7_5_1 0
y_8_5_1 1
z_8_5_1 0
lambda_8_5_1 0
y_9_5_1 1
z_9_5_1 0
lambda_9_5_1 0
y_10_5_1 1
z_10_5_1 0
lambda_10_5_1 0
y_11_5_1 1
z_11_5_1 0
lambda_11_5_1 0
y_12_5_1 1
z_12_5_1 0
lambda_12_5_1 0
y_13_5_1 1
z_13_5_1 0
lambda_13_5_1 0
y_14_5_1 1
z_14_5_1 0
lambda_14_5_1 0
y_15_5_1 0
z_15_5_1 0
lambda_15_5_1 0
y_16_5_1 0
z_16_5_1 0
lambda_16_5_1 0
y_17_5_1 0
z_17_5_1 0
lambda_17_5_1 0
y_18_5_1 0
z_18_5_1 0
lambda_18_5_1 0
y_19_5_1 0
z_19_5_1 0
lambda_19_5_1 0
y_20_5_1 0
z_20_5_1 0
lambda_20_5_1 0
y_21_5_1 0
z_21_5_1 0
lambda_21_5_1 0
s_6_1 523
e_6_1 1636
alpha_6_1 1
l_6_1 1
delta_6_1 1
beta_1_6_1 0
x_1_6_1_1_1 0
x_1_6_1_2_1 0
x_1_6_1_3_1 0
x_1_6_1_4_1 0
x_1_6_1_5_1 0
x_1_6_1_7_1 0
x_1_6_1_8_1 0
x_1_6_1_9_1 0
x_1_6_1_10_1 0
beta_2_6_1 1
x_2_6_1_1_1 0
x_2_6_1_2_1 1
x_2_6_1_3_1 0
x_2_6_1_4_1 0
x_2_6_1_5_1 0
x_2_6_1_7_1 0
x_2_6_1_8_1 0
x_2_6_1_9_1 0
x_2_6_1_10_1 0
y_1_6_1 0
z_1_6_1 0
lambda_1_6_1 0
y_2_6_1 0
z_2_6_1 0
lambda_2_6_1 0
y_3_6_1 0
z_3_6_1 0
lambda_3_6_1 0
y_4_6_1 0
z_4_6_1 0
lambda_4_6_1 0
y_5_6_1 0
z_5_6_1 0
lambda_5_6_1 0
y_6_6_1 0
z_6_6_1 0
lambda_6_6_1 0
y_7_6_1 1
z_7_6_1 0
lambda_7_6_1 0
y_8_6_1 1
z_8_6_1 0
lambda_8_6_1 0
y_9_6_1 1
z_9_6_1 1
lambda_9_6_1 1
y_10_6_1 1
z_10_6_1 0
lambda_10_6_1 0
y_11_6_1 1
z_11_6_1 0
lambda_11_6_1 0
y_12_6_1 1
z_12_6_1 0
lambda_12_6_1 0
y_13_6_1 1
z_13_6_1 1
lambda_13_6_1 1
y_14_6_1 1
z_14_6_1 0
lambda_14_6_1 0
y_15_6_1 0
z_15_6_1 0
lambda_15_6_1 0
y_16_6_1 0
z_16_6_1 0
lambda_16_6_1 0
y_17_6_1 0
z_17_6_1 0
lambda_17_6_1 0
y_18_6_1 0
z_18_6_1 0
lambda_18_6_1 0
y_19_6_1 0
z_19_6_1 0
lambda_19_6_1 0
y_20_6_1 0
z_20_6_1 0
lambda_20_6_1 0
y_21_6_1 0
z_21_6_1 0
lambda_21_6_1 0
s_7_1 307
e_7_1 871
alpha_7_1 1
l_7_1 1
delta_7_1 1
beta_1_7_1 1
x_1_7_1_1_1 0
x_1_7_1_2_1 0
x_1_7_1_3_1 1
x_1_7_1_4_1 0
x_1_7_1_5_1 0
x_1_7_1_6_1 0
x_1_7_1_8_1 0
x_1_7_1_9_1 0
x_1_7_1_10_1 0
beta_2_7_1 0
x_2_7_1_1_1 0
x_2_7_1_2_1 0
x_2_7_1_3_1 0
x_2_7_1_4_1 0
x_2_7_1_5_1 0
x_2_7_1_6_1 0
x_2_7_1_8_1 0
x_2_7_1_9_1 0
x_2_7_1_10_1 0
y_1_7_1 1
z_1_7_1 0
lambda_1_7_1 0
y_2_7_1 1
z_2_7_1 0
lambda_2_7_1 0
y_3_7_1 1
z_3_7_1 0
lambda_3_7_1 0
y_4_7_1 1
z_4_7_1 0
lambda_4_7_1 0
y_5_7_1 1
z_5_7_1 1
lambda_5_7_1 1
y_6_7_1 1
z_6_7_1 1
lambda_6_7_1 1
y_7_7_1 1
z_7_7_1 0
lambda_7_7_1 0
y_8_7_1 0
z_8_7_1 0
lambda_8_7_1 0
y_9_7_1 0
z_9_7_1 0
lambda_9_7_1 0
y_10_7_1 0
z_10_7_1 0
lambda_10_7_1 0
y_11_7_1 0
z_11_7_1 0
lambda_11_7_1 0
y_12_7_1 0
z_12_7_1 0
lambda_12_7_1 0
y_13_7_1 0
z_13_7_1 0
lambda_13_7_1 0
y_14_7_1 1
z_14_7_1 0
lambda_14_7_1 0
y_15_7_1 0
z_15_7_1 0
lambda_15_7_1 0
y_16_7_1 0
z_16_7_1 0
lambda_16_7_1 0
y_17_7_1 0
z_17_7_1 0
lambda_17_7_1 0
y_18_7_1 0
z_18_7_1 0
lambda_18_7_1 0
y_19_7_1 0
z_19_7_1 0
lambda_19_7_1 0
y_20_7_1 0
z_20_7_1 0
lambda_20_7_1 0
y_21_7_1 0
z_21_7_1 0
lambda_21_7_1 0
s_8_1 7747
e_8_1 8905
alpha_8_1 0
l_8_1 1
delta_8_1 0
beta_1_8_1 1
x_1_8_1_1_1 1
x_1_8_1_2_1 0
x_1_8_1_3_1 0
x_1_8_1_4_1 0
x_1_8_1_5_1 0
x_1_8_1_6_1 0
x_1_8_1_7_1 0
x_1_8_1_9_1 0
x_1_8_1_10_1 0
beta_2_8_1 0
x_2_8_1_1_1 0
x_2_8_1_2_1 0
x_2_8_1_3_1 0
x_2_8_1_4_1 0
x_2_8_1_5_1 0
x_2_8_1_6_1 0
x_2_8_1_7_1 0
x_2_8_1_9_1 0
x_2_8_1_10_1 0
y_1_8_1 1
z_1_8_1 0
lambda_1_8_1 0
y_2_8_1 1
z_2_8_1 0
lambda_2_8_1 0
y_3_8_1 1
z_3_8_1 0
lambda_3_8_1 0
y_4_8_1 0
z_4_8_1 0
lambda_4_8_1 0
y_5_8_1 0
z_5_8_1 0
lambda_5_8_1 0
y_6_8_1 0
z_6_8_1 0
lambda_6_8_1 0
y_7_8_1 1
z_7_8_1 1
lambda_7_8_1 0
y_8_8_1 1
z_8_8_1 1
lambda_8_8_1 0
y_9_8_1 0
z_9_8_1 0
lambda_9_8_1 0
y_10_8_1 0
z_10_8_1 0
lambda_10_8_1 0
y_11_8_1 0
z_11_8_1 0
lambda_11_8_1 0
y_12_8_1 0
z_12_8_1 0
lambda_12_8_1 0
y_13_8_1 0
z_13_8_1 0
lambda_13_8_1 0
y_14_8_1 0
z_14_8_1 0
lambda_14_8_1 0
y_15_8_1 0
z_15_8_1 0
lambda_15_8_1 0
y_16_8_1 0
z_16_8_1 0
lambda_16_8_1 0
y_17_8_1 0
z_17_8_1 0
lambda_17_8_1 0
y_18_8_1 1
z_18_8_1 1
lambda_18_8_1 0
y_19_8_1 1
z_19_8_1 1
lambda_19_8_1 0
y_20_8_1 1
z_20_8_1 0
lambda_20_8_1 0
y_21_8_1 0
z_21_8_1 0
lambda_21_8_1 0
s_9_1 2453
e_9_1 2880
alpha_9_1 1
l_9_1 0
delta_9_1 0
beta_1_9_1 1
x_1_9_1_1_1 0
x_1_9_1_2_1 0
x_1_9_1_3_1 0
x_1_9_1_4_1 0
x_1_9_1_5_1 0
x_1_9_1_6_1 0
x_1_9_1_7_1 0
x_1_9_1_8_1 0
x_1_9_1_10_1 1
beta_2_9_1 0
x_2_9_1_1_1 0
x_2_9_1_2_1 0
x_2_9_1_3_1 0
x_2_9_1_4_1 0
x_2_9_1_5_1 0
x_2_9_1_6_1 0
x_2_9_1_7_1 0
x_2_9_1_8_1 0
x_2_9_1_10_1 0
y_1_9_1 0
z_1_9_1 0
lambda_1_9_1 0
y_2_9_1 0
z_2_9_1 0
lambda_2_9_1 0
y_3_9_1 0
z_3_9_1 0
lambda_3_9_1 0
y_4_9_1 0
z_4_9_1 0
lambda_4_9_1 0
y_5_9_1 1
z_5_9_1 0
lambda_5_9_1 0
y_6_9_1 0
z_6_9_1 0
lambda_6_9_1 0
y_7_9_1 1
z_7_9_1 0
lambda_7_9_1 0
y_8_9_1 1
z_8_9_1 0
lambda_8_9_1 0
y_9_9_1 0
z_9_9_1 0
lambda_9_9_1 0
y_10_9_1 0
z_10_9_1 0
lambda_10_9_1 0
y_11_9_1 0
z_11_9_1 0
lambda_11_9_1 0
y_12_9_1 0
z_12_9_1 0
lambda_12_9_1 0
y_13_9_1 0
z_13_9_1 0
lambda_13_9_1 0
y_14_9_1 0
z_14_9_1 0
lambda_14_9_1 0
y_15_9_1 0
z_15_9_1 0
lambda_15_9_1 0
y_16_9_1 0
z_16_9_1 0
lambda_16_9_1 0
y_17_9_1 0
z_17_9_1 0
lambda_17_9_1 0
y_18_9_1 1
z_18_9_1 0
lambda_18_9_1 0
y_19_9_1 1
z_19_9_1 0
lambda_19_9_1 0
y_20_9_1 1
z_20_9_1 0
lambda_20_9_1 0
y_21_9_1 0
z_21_9_1 0
lambda_21_9_1 0
s_10_1 1582
e_10_1 2453
alpha_10_1 1
l_10_1 1
delta_10_1 1
beta_1_10_1 1
x_1_10_1_1_1 0
x_1_10_1_2_1 0
x_1_10_1_3_1 0
x_1_10_1_4_1 1
x_1_10_1_5_1 0
x_1_10_1_6_1 0
x_1_10_1_7_1 0
x_1_10_1_8_1 0
x_1_10_1_9_1 0
beta_2_10_1 0
x_2_10_1_1_1 0
x_2_10_1_2_1 0
x_2_10_1_3_1 0
x_2_10_1_4_1 0
x_2_10_1_5_1 0
x_2_10_1_6_1 0
x_2_10_1_7_1 0
x_2_10_1_8_1 0
x_2_10_1_9_1 0
y_1_10_1 0
z_1_10_1 0
lambda_1_10_1 0
y_2_10_1 0
z_2_10_1 0
lambda_2_10_1 0
y_3_10_1 0
z_3_10_1 0
lambda_3_10_1 0
y_4_10_1 0
z_4_10_1 0
lambda_4_10_1 0
y_5_10_1 1
z_5_10_1 0
lambda_5_10_1 0
y_6_10_1 0
z_6_10_1 0
lambda_6_10_1 0
y_7_10_1 1
z_7_10_1 0
lambda_7_10_1 0
y_8_10_1 1
z_8_10_1 1
lambda_8_10_1 1
y_9_10_1 0
z_9_10_1 0
lambda_9_10_1 0
y_10_10_1 0
z_10_10_1 0
lambda_10_10_1 0
y_11_10_1 0
z_11_10_1 0
lambda_11_10_1 0
y_12_10_1 0
z_12_10_1 0
lambda_12_10_1 0
y_13_10_1 0
z_13_10_1 0
lambda_13_10_1 0
y_14_10_1 0
z_14_10_1 0
lambda_14_10_1 0
y_15_10_1 0
z_15_10_1 0
lambda_15_10_1 0
y_16_10_1 0
z_16_10_1 0
lambda_16_10_1 0
y_17_10_1 0
z_17_10_1 0
lambda_17_10_1 0
y_18_10_1 1
z_18_10_1 1
lambda_18_10_1 1
y_19_10_1 1
z_19_10_1 1
lambda_19_10_1 1
y_20_10_1 1
z_20_10_1 1
lambda_20_10_1 1
y_21_10_1 0
z_21_10_1 0
lambda_21_10_1 0
h_1_1 0
q_1_1 2
h_2_1 3
q_2_1 0
h_3_1 3
q_3_1 0
h_4_1 871
q_4_1 0
h_5_1 488
q_5_1 1
h_6_1 523
q_6_1 0
h_7_1 307
q_7_1 0
h_8_1 547
q_8_1 5
h_9_1 1013
q_9_1 1
h_10_1 142
q_10_1 1
